c User generated cnf file
p cnf 14 17
5 2 -7 0 
-2 11 1 0 
11 -1 8 0 
-2 3 6 0 
-13 13 4 0 
6 -3 4 0 
-1 14 6 0 
11 -4 8 0 
7 3 -11 0 
-11 2 3 0 
-12 2 11 0 
10 4 -7 0 
7 -2 9 0 
13 -6 1 0 
1 11 -5 0 
-13 12 3 0 
6 -13 5 0 
